outputs/case_112.model.txt
violate_other_finance_business_management_rules = False
violation_license_revoked = False
internal_control_change_notified = False
violate_article_14_1_3 = False
violate_securities_law = True
violate_article_147 = False
violate_article_61 = False
violate_finance_business_management_rules = False
violate_article_69_1 = False
improvement_completed = True
violate_article_61_applied = False
violate_article_21_1_5 = False
violate_article_152 = False
violate_article_58 = False
violate_article_165_2 = True
violation_dismiss_officer = False
violate_article_145_2 = False
violate_article_165_1 = False
violate_article_141_applied = False
violate_article_14_3 = False
violate_article_14_1_1 = False
internal_control_change_completed = False
internal_control_system_established = True
violation_suspension = False
violation_warning = True
violate_article_141 = False
violation_minor = False
violation_other_measures = False
not_execute_internal_control = True
violate_article_144_applied = False
violate_article_79 = False
violation_penalty_level = True
violate_article_145_2_applied = False
violate_article_144 = False
violate_article_147_applied = False
violate_government_order = True
internal_control_executed = False
violate_article_159 = False
internal_control_updated = True
document_noncompliance = False
penalty = False
not_comply_document_rules = False
not_submit_documents = False
legal_violation = True
penalty_fine_applicable = True
internal_control_compliance = False
internal_control_established = True
refuse_inspection = False
refuse_or_obstruct_inspection = False
obstruct_inspection = False
business_rule_violation = True